32      10      
17      19      20      13      11      15      15      20      12      12      
0       0       0       0       0       0       0       0       0       0       0       1       2       
10      0       0       0       0       0       0       15      13      0       0       1       3       
2       8       0       0       13      0       0       0       0       0       0       1       4       
8       13      0       0       0       5       0       0       0       0       0       2       5       8       
1       0       0       0       4       0       0       5       0       0       0       1       6       
10      0       0       0       0       0       15      0       15      0       0       1       7       
5       0       11      13      0       0       0       0       0       0       0       1       9       
1       0       0       16      0       0       0       6       0       0       0       1       9       
9       0       0       20      0       0       0       0       0       0       6       2       10      15      
8       0       0       20      0       0       0       0       0       12      0       1       11      
4       0       0       0       0       9       0       15      0       0       0       2       12      25      
3       0       0       0       13      0       0       0       13      0       0       1       13      
3       0       0       0       13      0       0       0       0       12      0       1       14      
5       0       7       16      0       0       0       0       0       0       0       1       16      
1       0       0       0       0       0       0       15      0       12      0       1       16      
9       14      0       0       0       0       0       0       0       0       12      1       17      
3       0       19      0       0       11      0       0       0       0       0       2       18      23      
1       0       0       0       0       0       15      0       18      0       0       2       19      20      
9       0       0       0       0       0       7       12      0       0       0       1       21      
6       17      0       0       0       0       6       0       0       0       0       1       21      
9       0       17      0       0       0       10      0       0       0       0       1       22      
7       0       0       0       0       0       15      0       0       4       0       1       24      
5       0       0       0       0       11      0       0       0       0       12      1       24      
5       0       13      0       10      0       0       0       0       0       0       2       26      27      
8       0       0       5       0       0       0       0       0       6       0       2       26      27      
9       12      0       0       0       0       0       0       11      0       0       1       28      
3       13      0       0       0       9       0       0       0       0       0       1       28      
6       0       0       0       0       0       0       0       20      0       5       1       29      
4       0       0       0       0       5       0       0       0       0       12      1       30      
7       0       0       0       6       0       0       0       0       8       0       1       31      
5       0       19      0       0       0       0       0       0       0       7       1       32      
0       0       0       0       0       0       0       0       0       0       0       0       
